benchmark/results/graph__10-1000-0.10-02_12/graph__10-1000-0.10-02_12_QuintonOs_Benders_sub.lp
\ This file has been generated by DOcplex
\ ENCODING=ISO-8859-1
\Problem name: Quinton Bounded Benders_dual_sub

Minimize
 obj: 0.000978473581 pi_nr_a0 + 0.001172332943 pi_nr_a1
      + 0.000933706816 pi_nr_a2 + 0.001278772379 pi_nr_a3
      + 0.000837520938 pi_nr_a4 + 0.001926782274 pi_nr_a5
      + 0.001267427123 pi_nr_a6 + 0.002457002457 pi_nr_a7
      + 0.000985221675 pi_nr_a8 + 0.002227171492 pi_nr_a9 + pi_p_a0_a3
      + pi_p_a2_a5 + pi_p_a2_a7 + pi_p_a2_a8 + pi_p_a4_a9 + pi_d_a0_a1_proc_1
      + 2503 pi_d_a0_a1_proc_0 + 2502 pi_d_a1_a0_proc_0 + 1263 pi_d_a0_a2_proc_1
      + 1263 pi_d_a0_a2_proc_0 + 1240 pi_d_a2_a0_proc_1 + 1240 pi_d_a2_a0_proc_0
      + pi_d_a0_a3_proc_1 + 2503 pi_d_a0_a3_proc_0 + 2502 pi_d_a3_a0_proc_0
      + pi_d_a0_a4_proc_1 + 2503 pi_d_a0_a4_proc_0 + 2502 pi_d_a4_a0_proc_0
      + 1263 pi_d_a0_a5_proc_1 + 1263 pi_d_a0_a5_proc_0 + 1240 pi_d_a5_a0_proc_1
      + 1240 pi_d_a5_a0_proc_0 + 1263 pi_d_a0_a6_proc_0 + 1240 pi_d_a6_a0_proc_0
      + 1263 pi_d_a0_a7_proc_0 + 1240 pi_d_a7_a0_proc_0 + pi_d_a0_a8_proc_1
      + 2503 pi_d_a0_a8_proc_0 + 2502 pi_d_a8_a0_proc_0 + 1263 pi_d_a0_a9_proc_1
      + 1263 pi_d_a0_a9_proc_0 + 1240 pi_d_a9_a0_proc_1 + 1240 pi_d_a9_a0_proc_0
      + 1263 pi_d_a1_a2_proc_1 + 1263 pi_d_a1_a2_proc_0 + 1240 pi_d_a2_a1_proc_1
      + 1240 pi_d_a2_a1_proc_0 + pi_d_a1_a3_proc_1 + 2503 pi_d_a1_a3_proc_0
      + 2502 pi_d_a3_a1_proc_0 + pi_d_a1_a4_proc_1 + 2503 pi_d_a1_a4_proc_0
      + 2502 pi_d_a4_a1_proc_0 + 1263 pi_d_a1_a5_proc_1 + 1263 pi_d_a1_a5_proc_0
      + 1240 pi_d_a5_a1_proc_1 + 1240 pi_d_a5_a1_proc_0 + 1263 pi_d_a1_a6_proc_0
      + 1240 pi_d_a6_a1_proc_0 + 1263 pi_d_a1_a7_proc_0 + 1240 pi_d_a7_a1_proc_0
      + pi_d_a1_a8_proc_1 + 2503 pi_d_a1_a8_proc_0 + 2502 pi_d_a8_a1_proc_0
      + 1263 pi_d_a1_a9_proc_1 + 1263 pi_d_a1_a9_proc_0 + 1240 pi_d_a9_a1_proc_1
      + 1240 pi_d_a9_a1_proc_0 + 1263 pi_d_a2_a3_proc_1 + 1263 pi_d_a2_a3_proc_0
      + 1240 pi_d_a3_a2_proc_1 + 1240 pi_d_a3_a2_proc_0 + 1263 pi_d_a2_a4_proc_1
      + 1263 pi_d_a2_a4_proc_0 + 1240 pi_d_a4_a2_proc_1 + 1240 pi_d_a4_a2_proc_0
      + 2503 pi_d_a2_a5_proc_1 + pi_d_a2_a5_proc_0 + 2502 pi_d_a5_a2_proc_1
      + pi_d_a2_a6_proc_0 + pi_d_a2_a7_proc_0 + 1263 pi_d_a2_a8_proc_1
      + 1263 pi_d_a2_a8_proc_0 + 1240 pi_d_a8_a2_proc_1 + 1240 pi_d_a8_a2_proc_0
      + 2503 pi_d_a2_a9_proc_1 + pi_d_a2_a9_proc_0 + 2502 pi_d_a9_a2_proc_1
      + 2502 pi_d_a3_a4_proc_0 + pi_d_a4_a3_proc_1 + 2503 pi_d_a4_a3_proc_0
      + 1263 pi_d_a3_a5_proc_1 + 1263 pi_d_a3_a5_proc_0 + 1240 pi_d_a5_a3_proc_1
      + 1240 pi_d_a5_a3_proc_0 + 1240 pi_d_a3_a6_proc_0 + 1263 pi_d_a6_a3_proc_0
      + 1263 pi_d_a3_a7_proc_0 + 1240 pi_d_a7_a3_proc_0 + pi_d_a3_a8_proc_1
      + 2503 pi_d_a3_a8_proc_0 + 2502 pi_d_a8_a3_proc_0 + 1263 pi_d_a3_a9_proc_1
      + 1263 pi_d_a3_a9_proc_0 + 1240 pi_d_a9_a3_proc_1 + 1240 pi_d_a9_a3_proc_0
      + 1263 pi_d_a4_a5_proc_1 + 1263 pi_d_a4_a5_proc_0 + 1240 pi_d_a5_a4_proc_1
      + 1240 pi_d_a5_a4_proc_0 + 1263 pi_d_a4_a6_proc_0 + 1240 pi_d_a6_a4_proc_0
      + 1263 pi_d_a4_a7_proc_0 + 1240 pi_d_a7_a4_proc_0 + pi_d_a4_a8_proc_1
      + 2503 pi_d_a4_a8_proc_0 + 2502 pi_d_a8_a4_proc_0 + 1263 pi_d_a4_a9_proc_1
      + 1263 pi_d_a4_a9_proc_0 + 1240 pi_d_a9_a4_proc_1 + 1240 pi_d_a9_a4_proc_0
      + pi_d_a5_a6_proc_0 + pi_d_a5_a7_proc_0 + 1263 pi_d_a5_a8_proc_1
      + 1263 pi_d_a5_a8_proc_0 + 1240 pi_d_a8_a5_proc_1 + 1240 pi_d_a8_a5_proc_0
      + 2503 pi_d_a5_a9_proc_1 + pi_d_a5_a9_proc_0 + 2502 pi_d_a9_a5_proc_1
      + pi_d_a6_a7_proc_0 + 1263 pi_d_a6_a8_proc_0 + 1240 pi_d_a8_a6_proc_0
      + pi_d_a6_a9_proc_0 + 1263 pi_d_a7_a8_proc_0 + 1240 pi_d_a8_a7_proc_0
      + pi_d_a9_a7_proc_0 + 1240 pi_d_a8_a9_proc_1 + 1240 pi_d_a8_a9_proc_0
      + 1263 pi_d_a9_a8_proc_1 + 1263 pi_d_a9_a8_proc_0 + pi_y2_a0_proc_1
      + pi_y2_a1_proc_1 + pi_y2_a2_proc_0 + pi_y2_a3_proc_1 + pi_y2_a4_proc_1
      + pi_y2_a5_proc_0 + pi_y2_a6_proc_0 + pi_y2_a7_proc_0 + pi_y2_a8_proc_1
      + pi_y2_a9_proc_0
Subject To
 c1: pi_nr_a0 + pi_nr_a1 + pi_nr_a2 + pi_nr_a3 + pi_nr_a4 + pi_nr_a5 + pi_nr_a6
     + pi_nr_a7 + pi_nr_a8 + pi_nr_a9 - pi_y1_a0 - pi_y1_a1 - pi_y1_a2
     - pi_y1_a3 - pi_y1_a4 - pi_y1_a5 - pi_y1_a6 - pi_y1_a7 - pi_y1_a8
     - pi_y1_a9 >= 1
 c2: - pi_p_a1_a0 + pi_p_a0_a2 + pi_p_a0_a3 - pi_p_a3_a0 + pi_d_a0_a1_proc_1
     + pi_d_a0_a1_proc_0 - pi_d_a1_a0_proc_1 - pi_d_a1_a0_proc_0
     + pi_d_a0_a2_proc_1 + pi_d_a0_a2_proc_0 - pi_d_a2_a0_proc_1
     - pi_d_a2_a0_proc_0 + pi_d_a0_a3_proc_1 + pi_d_a0_a3_proc_0
     - pi_d_a3_a0_proc_1 - pi_d_a3_a0_proc_0 + pi_d_a0_a4_proc_1
     + pi_d_a0_a4_proc_0 - pi_d_a4_a0_proc_1 - pi_d_a4_a0_proc_0
     + pi_d_a0_a5_proc_1 + pi_d_a0_a5_proc_0 - pi_d_a5_a0_proc_1
     - pi_d_a5_a0_proc_0 + pi_d_a0_a6_proc_0 - pi_d_a6_a0_proc_0
     + pi_d_a0_a7_proc_0 - pi_d_a7_a0_proc_0 + pi_d_a0_a8_proc_1
     + pi_d_a0_a8_proc_0 - pi_d_a8_a0_proc_1 - pi_d_a8_a0_proc_0
     + pi_d_a0_a9_proc_1 + pi_d_a0_a9_proc_0 - pi_d_a9_a0_proc_1
     - pi_d_a9_a0_proc_0 >= 0
 c3: 1123 pi_p_a0_a2 + 1123 pi_p_a0_a3 + 1123 pi_d_a0_a1_proc_0
     + 1123 pi_d_a0_a2_proc_0 + 1123 pi_d_a0_a3_proc_0 + 1123 pi_d_a0_a4_proc_0
     + 1123 pi_d_a0_a5_proc_0 + 1123 pi_d_a0_a6_proc_0 + 1123 pi_d_a0_a7_proc_0
     + 1123 pi_d_a0_a8_proc_0 + 1123 pi_d_a0_a9_proc_0 + pi_y1_a0
     + pi_y2_a0_proc_0 >= 0
 c4: 1022 pi_p_a0_a2 + 1022 pi_p_a0_a3 + 1022 pi_d_a0_a1_proc_1
     + 1022 pi_d_a0_a2_proc_1 + 1022 pi_d_a0_a3_proc_1 + 1022 pi_d_a0_a4_proc_1
     + 1022 pi_d_a0_a5_proc_1 + 1022 pi_d_a0_a8_proc_1 + 1022 pi_d_a0_a9_proc_1
     + pi_y1_a0 + pi_y2_a0_proc_1 >= 0
 c5: pi_p_a1_a0 - pi_p_a4_a1 - pi_d_a0_a1_proc_1 - pi_d_a0_a1_proc_0
     + pi_d_a1_a0_proc_1 + pi_d_a1_a0_proc_0 + pi_d_a1_a2_proc_1
     + pi_d_a1_a2_proc_0 - pi_d_a2_a1_proc_1 - pi_d_a2_a1_proc_0
     + pi_d_a1_a3_proc_1 + pi_d_a1_a3_proc_0 - pi_d_a3_a1_proc_1
     - pi_d_a3_a1_proc_0 + pi_d_a1_a4_proc_1 + pi_d_a1_a4_proc_0
     - pi_d_a4_a1_proc_1 - pi_d_a4_a1_proc_0 + pi_d_a1_a5_proc_1
     + pi_d_a1_a5_proc_0 - pi_d_a5_a1_proc_1 - pi_d_a5_a1_proc_0
     + pi_d_a1_a6_proc_0 - pi_d_a6_a1_proc_0 + pi_d_a1_a7_proc_0
     - pi_d_a7_a1_proc_0 + pi_d_a1_a8_proc_1 + pi_d_a1_a8_proc_0
     - pi_d_a8_a1_proc_1 - pi_d_a8_a1_proc_0 + pi_d_a1_a9_proc_1
     + pi_d_a1_a9_proc_0 - pi_d_a9_a1_proc_1 - pi_d_a9_a1_proc_0 >= 0
 c6: 877 pi_p_a1_a0 + 877 pi_d_a1_a0_proc_0 + 877 pi_d_a1_a2_proc_0
     + 877 pi_d_a1_a3_proc_0 + 877 pi_d_a1_a4_proc_0 + 877 pi_d_a1_a5_proc_0
     + 877 pi_d_a1_a6_proc_0 + 877 pi_d_a1_a7_proc_0 + 877 pi_d_a1_a8_proc_0
     + 877 pi_d_a1_a9_proc_0 + pi_y1_a1 + pi_y2_a1_proc_0 >= 0
 c7: 853 pi_p_a1_a0 + 853 pi_d_a1_a0_proc_1 + 853 pi_d_a1_a2_proc_1
     + 853 pi_d_a1_a3_proc_1 + 853 pi_d_a1_a4_proc_1 + 853 pi_d_a1_a5_proc_1
     + 853 pi_d_a1_a8_proc_1 + 853 pi_d_a1_a9_proc_1 + pi_y1_a1
     + pi_y2_a1_proc_1 >= 0
 c8: - pi_p_a0_a2 + pi_p_a2_a5 + pi_p_a2_a7 + pi_p_a2_a8 - pi_d_a0_a2_proc_1
     - pi_d_a0_a2_proc_0 + pi_d_a2_a0_proc_1 + pi_d_a2_a0_proc_0
     - pi_d_a1_a2_proc_1 - pi_d_a1_a2_proc_0 + pi_d_a2_a1_proc_1
     + pi_d_a2_a1_proc_0 + pi_d_a2_a3_proc_1 + pi_d_a2_a3_proc_0
     - pi_d_a3_a2_proc_1 - pi_d_a3_a2_proc_0 + pi_d_a2_a4_proc_1
     + pi_d_a2_a4_proc_0 - pi_d_a4_a2_proc_1 - pi_d_a4_a2_proc_0
     + pi_d_a2_a5_proc_1 + pi_d_a2_a5_proc_0 - pi_d_a5_a2_proc_1
     - pi_d_a5_a2_proc_0 + pi_d_a2_a6_proc_0 - pi_d_a6_a2_proc_0
     + pi_d_a2_a7_proc_0 - pi_d_a7_a2_proc_0 + pi_d_a2_a8_proc_1
     + pi_d_a2_a8_proc_0 - pi_d_a8_a2_proc_1 - pi_d_a8_a2_proc_0
     + pi_d_a2_a9_proc_1 + pi_d_a2_a9_proc_0 - pi_d_a9_a2_proc_1
     - pi_d_a9_a2_proc_0 >= 0
 c9: 1071 pi_p_a2_a5 + 1071 pi_p_a2_a7 + 1071 pi_p_a2_a8
     + 1071 pi_d_a2_a0_proc_0 + 1071 pi_d_a2_a1_proc_0 + 1071 pi_d_a2_a3_proc_0
     + 1071 pi_d_a2_a4_proc_0 + 1071 pi_d_a2_a5_proc_0 + 1071 pi_d_a2_a6_proc_0
     + 1071 pi_d_a2_a7_proc_0 + 1071 pi_d_a2_a8_proc_0 + 1071 pi_d_a2_a9_proc_0
     + pi_y1_a2 + pi_y2_a2_proc_0 >= 0
 c10: 1139 pi_p_a2_a5 + 1139 pi_p_a2_a7 + 1139 pi_p_a2_a8
      + 1139 pi_d_a2_a0_proc_1 + 1139 pi_d_a2_a1_proc_1 + 1139 pi_d_a2_a3_proc_1
      + 1139 pi_d_a2_a4_proc_1 + 1139 pi_d_a2_a5_proc_1 + 1139 pi_d_a2_a8_proc_1
      + 1139 pi_d_a2_a9_proc_1 + pi_y1_a2 + pi_y2_a2_proc_1 >= 0
 c11: - pi_p_a0_a3 + pi_p_a3_a4 - pi_p_a9_a3 + pi_p_a3_a0 - pi_d_a0_a3_proc_1
      - pi_d_a0_a3_proc_0 + pi_d_a3_a0_proc_1 + pi_d_a3_a0_proc_0
      - pi_d_a1_a3_proc_1 - pi_d_a1_a3_proc_0 + pi_d_a3_a1_proc_1
      + pi_d_a3_a1_proc_0 - pi_d_a2_a3_proc_1 - pi_d_a2_a3_proc_0
      + pi_d_a3_a2_proc_1 + pi_d_a3_a2_proc_0 + pi_d_a3_a4_proc_1
      + pi_d_a3_a4_proc_0 - pi_d_a4_a3_proc_1 - pi_d_a4_a3_proc_0
      + pi_d_a3_a5_proc_1 + pi_d_a3_a5_proc_0 - pi_d_a5_a3_proc_1
      - pi_d_a5_a3_proc_0 + pi_d_a3_a6_proc_0 - pi_d_a6_a3_proc_0
      + pi_d_a3_a7_proc_0 - pi_d_a7_a3_proc_0 + pi_d_a3_a8_proc_1
      + pi_d_a3_a8_proc_0 - pi_d_a8_a3_proc_1 - pi_d_a8_a3_proc_0
      + pi_d_a3_a9_proc_1 + pi_d_a3_a9_proc_0 - pi_d_a9_a3_proc_1
      - pi_d_a9_a3_proc_0 >= 0
 c12: 882 pi_p_a3_a4 + 882 pi_p_a3_a0 + 882 pi_d_a3_a0_proc_0
      + 882 pi_d_a3_a1_proc_0 + 882 pi_d_a3_a2_proc_0 + 882 pi_d_a3_a4_proc_0
      + 882 pi_d_a3_a5_proc_0 + 882 pi_d_a3_a6_proc_0 + 882 pi_d_a3_a7_proc_0
      + 882 pi_d_a3_a8_proc_0 + 882 pi_d_a3_a9_proc_0 + pi_y1_a3
      + pi_y2_a3_proc_0 >= 0
 c13: 782 pi_p_a3_a4 + 782 pi_p_a3_a0 + 782 pi_d_a3_a0_proc_1
      + 782 pi_d_a3_a1_proc_1 + 782 pi_d_a3_a2_proc_1 + 782 pi_d_a3_a4_proc_1
      + 782 pi_d_a3_a5_proc_1 + 782 pi_d_a3_a8_proc_1 + 782 pi_d_a3_a9_proc_1
      + pi_y1_a3 + pi_y2_a3_proc_1 >= 0
 c14: - pi_p_a3_a4 + pi_p_a4_a1 - pi_p_a5_a4 + pi_p_a4_a9 - pi_d_a0_a4_proc_1
      - pi_d_a0_a4_proc_0 + pi_d_a4_a0_proc_1 + pi_d_a4_a0_proc_0
      - pi_d_a1_a4_proc_1 - pi_d_a1_a4_proc_0 + pi_d_a4_a1_proc_1
      + pi_d_a4_a1_proc_0 - pi_d_a2_a4_proc_1 - pi_d_a2_a4_proc_0
      + pi_d_a4_a2_proc_1 + pi_d_a4_a2_proc_0 - pi_d_a3_a4_proc_1
      - pi_d_a3_a4_proc_0 + pi_d_a4_a3_proc_1 + pi_d_a4_a3_proc_0
      + pi_d_a4_a5_proc_1 + pi_d_a4_a5_proc_0 - pi_d_a5_a4_proc_1
      - pi_d_a5_a4_proc_0 + pi_d_a4_a6_proc_0 - pi_d_a6_a4_proc_0
      + pi_d_a4_a7_proc_0 - pi_d_a7_a4_proc_0 + pi_d_a4_a8_proc_1
      + pi_d_a4_a8_proc_0 - pi_d_a8_a4_proc_1 - pi_d_a8_a4_proc_0
      + pi_d_a4_a9_proc_1 + pi_d_a4_a9_proc_0 - pi_d_a9_a4_proc_1
      - pi_d_a9_a4_proc_0 >= 0
 c15: 1230 pi_p_a4_a1 + 1230 pi_p_a4_a9 + 1230 pi_d_a4_a0_proc_0
      + 1230 pi_d_a4_a1_proc_0 + 1230 pi_d_a4_a2_proc_0 + 1230 pi_d_a4_a3_proc_0
      + 1230 pi_d_a4_a5_proc_0 + 1230 pi_d_a4_a6_proc_0 + 1230 pi_d_a4_a7_proc_0
      + 1230 pi_d_a4_a8_proc_0 + 1230 pi_d_a4_a9_proc_0 + pi_y1_a4
      + pi_y2_a4_proc_0 >= 0
 c16: 1194 pi_p_a4_a1 + 1194 pi_p_a4_a9 + 1194 pi_d_a4_a0_proc_1
      + 1194 pi_d_a4_a1_proc_1 + 1194 pi_d_a4_a2_proc_1 + 1194 pi_d_a4_a3_proc_1
      + 1194 pi_d_a4_a5_proc_1 + 1194 pi_d_a4_a8_proc_1 + 1194 pi_d_a4_a9_proc_1
      + pi_y1_a4 + pi_y2_a4_proc_1 >= 0
 c17: - pi_p_a2_a5 - pi_p_a6_a5 + pi_p_a5_a4 - pi_d_a0_a5_proc_1
      - pi_d_a0_a5_proc_0 + pi_d_a5_a0_proc_1 + pi_d_a5_a0_proc_0
      - pi_d_a1_a5_proc_1 - pi_d_a1_a5_proc_0 + pi_d_a5_a1_proc_1
      + pi_d_a5_a1_proc_0 - pi_d_a2_a5_proc_1 - pi_d_a2_a5_proc_0
      + pi_d_a5_a2_proc_1 + pi_d_a5_a2_proc_0 - pi_d_a3_a5_proc_1
      - pi_d_a3_a5_proc_0 + pi_d_a5_a3_proc_1 + pi_d_a5_a3_proc_0
      - pi_d_a4_a5_proc_1 - pi_d_a4_a5_proc_0 + pi_d_a5_a4_proc_1
      + pi_d_a5_a4_proc_0 + pi_d_a5_a6_proc_0 - pi_d_a6_a5_proc_0
      + pi_d_a5_a7_proc_0 - pi_d_a7_a5_proc_0 + pi_d_a5_a8_proc_1
      + pi_d_a5_a8_proc_0 - pi_d_a8_a5_proc_1 - pi_d_a8_a5_proc_0
      + pi_d_a5_a9_proc_1 + pi_d_a5_a9_proc_0 - pi_d_a9_a5_proc_1
      - pi_d_a9_a5_proc_0 >= 0
 c18: 519 pi_p_a5_a4 + 519 pi_d_a5_a0_proc_0 + 519 pi_d_a5_a1_proc_0
      + 519 pi_d_a5_a2_proc_0 + 519 pi_d_a5_a3_proc_0 + 519 pi_d_a5_a4_proc_0
      + 519 pi_d_a5_a6_proc_0 + 519 pi_d_a5_a7_proc_0 + 519 pi_d_a5_a8_proc_0
      + 519 pi_d_a5_a9_proc_0 + pi_y1_a5 + pi_y2_a5_proc_0 >= 0
 c19: 1251 pi_p_a5_a4 + 1251 pi_d_a5_a0_proc_1 + 1251 pi_d_a5_a1_proc_1
      + 1251 pi_d_a5_a2_proc_1 + 1251 pi_d_a5_a3_proc_1 + 1251 pi_d_a5_a4_proc_1
      + 1251 pi_d_a5_a8_proc_1 + 1251 pi_d_a5_a9_proc_1 + pi_y1_a5
      + pi_y2_a5_proc_1 >= 0
 c20: pi_p_a6_a5 - pi_p_a8_a6 - pi_d_a0_a6_proc_0 + pi_d_a6_a0_proc_0
      - pi_d_a1_a6_proc_0 + pi_d_a6_a1_proc_0 - pi_d_a2_a6_proc_0
      + pi_d_a6_a2_proc_0 - pi_d_a3_a6_proc_0 + pi_d_a6_a3_proc_0
      - pi_d_a4_a6_proc_0 + pi_d_a6_a4_proc_0 - pi_d_a5_a6_proc_0
      + pi_d_a6_a5_proc_0 + pi_d_a6_a7_proc_0 - pi_d_a7_a6_proc_0
      + pi_d_a6_a8_proc_0 - pi_d_a8_a6_proc_0 + pi_d_a6_a9_proc_0
      - pi_d_a9_a6_proc_0 >= 0
 c21: 789 pi_p_a6_a5 + 789 pi_d_a6_a0_proc_0 + 789 pi_d_a6_a1_proc_0
      + 789 pi_d_a6_a2_proc_0 + 789 pi_d_a6_a3_proc_0 + 789 pi_d_a6_a4_proc_0
      + 789 pi_d_a6_a5_proc_0 + 789 pi_d_a6_a7_proc_0 + 789 pi_d_a6_a8_proc_0
      + 789 pi_d_a6_a9_proc_0 + pi_y1_a6 + pi_y2_a6_proc_0 >= 0
 c22: - pi_p_a2_a7 + pi_p_a7_a9 - pi_d_a0_a7_proc_0 + pi_d_a7_a0_proc_0
      - pi_d_a1_a7_proc_0 + pi_d_a7_a1_proc_0 - pi_d_a2_a7_proc_0
      + pi_d_a7_a2_proc_0 - pi_d_a3_a7_proc_0 + pi_d_a7_a3_proc_0
      - pi_d_a4_a7_proc_0 + pi_d_a7_a4_proc_0 - pi_d_a5_a7_proc_0
      + pi_d_a7_a5_proc_0 - pi_d_a6_a7_proc_0 + pi_d_a7_a6_proc_0
      + pi_d_a7_a8_proc_0 - pi_d_a8_a7_proc_0 + pi_d_a7_a9_proc_0
      - pi_d_a9_a7_proc_0 >= 0
 c23: 407 pi_p_a7_a9 + 407 pi_d_a7_a0_proc_0 + 407 pi_d_a7_a1_proc_0
      + 407 pi_d_a7_a2_proc_0 + 407 pi_d_a7_a3_proc_0 + 407 pi_d_a7_a4_proc_0
      + 407 pi_d_a7_a5_proc_0 + 407 pi_d_a7_a6_proc_0 + 407 pi_d_a7_a8_proc_0
      + 407 pi_d_a7_a9_proc_0 + pi_y1_a7 + pi_y2_a7_proc_0 >= 0
 c24: - pi_p_a2_a8 + pi_p_a8_a6 - pi_d_a0_a8_proc_1 - pi_d_a0_a8_proc_0
      + pi_d_a8_a0_proc_1 + pi_d_a8_a0_proc_0 - pi_d_a1_a8_proc_1
      - pi_d_a1_a8_proc_0 + pi_d_a8_a1_proc_1 + pi_d_a8_a1_proc_0
      - pi_d_a2_a8_proc_1 - pi_d_a2_a8_proc_0 + pi_d_a8_a2_proc_1
      + pi_d_a8_a2_proc_0 - pi_d_a3_a8_proc_1 - pi_d_a3_a8_proc_0
      + pi_d_a8_a3_proc_1 + pi_d_a8_a3_proc_0 - pi_d_a4_a8_proc_1
      - pi_d_a4_a8_proc_0 + pi_d_a8_a4_proc_1 + pi_d_a8_a4_proc_0
      - pi_d_a5_a8_proc_1 - pi_d_a5_a8_proc_0 + pi_d_a8_a5_proc_1
      + pi_d_a8_a5_proc_0 - pi_d_a6_a8_proc_0 + pi_d_a8_a6_proc_0
      - pi_d_a7_a8_proc_0 + pi_d_a8_a7_proc_0 + pi_d_a8_a9_proc_1
      + pi_d_a8_a9_proc_0 - pi_d_a9_a8_proc_1 - pi_d_a9_a8_proc_0 >= 0
 c25: 759 pi_p_a8_a6 + 759 pi_d_a8_a0_proc_0 + 759 pi_d_a8_a1_proc_0
      + 759 pi_d_a8_a2_proc_0 + 759 pi_d_a8_a3_proc_0 + 759 pi_d_a8_a4_proc_0
      + 759 pi_d_a8_a5_proc_0 + 759 pi_d_a8_a6_proc_0 + 759 pi_d_a8_a7_proc_0
      + 759 pi_d_a8_a9_proc_0 + pi_y1_a8 + pi_y2_a8_proc_0 >= 0
 c26: 1015 pi_p_a8_a6 + 1015 pi_d_a8_a0_proc_1 + 1015 pi_d_a8_a1_proc_1
      + 1015 pi_d_a8_a2_proc_1 + 1015 pi_d_a8_a3_proc_1 + 1015 pi_d_a8_a4_proc_1
      + 1015 pi_d_a8_a5_proc_1 + 1015 pi_d_a8_a9_proc_1 + pi_y1_a8
      + pi_y2_a8_proc_1 >= 0
 c27: pi_p_a9_a3 - pi_p_a7_a9 - pi_p_a4_a9 - pi_d_a0_a9_proc_1
      - pi_d_a0_a9_proc_0 + pi_d_a9_a0_proc_1 + pi_d_a9_a0_proc_0
      - pi_d_a1_a9_proc_1 - pi_d_a1_a9_proc_0 + pi_d_a9_a1_proc_1
      + pi_d_a9_a1_proc_0 - pi_d_a2_a9_proc_1 - pi_d_a2_a9_proc_0
      + pi_d_a9_a2_proc_1 + pi_d_a9_a2_proc_0 - pi_d_a3_a9_proc_1
      - pi_d_a3_a9_proc_0 + pi_d_a9_a3_proc_1 + pi_d_a9_a3_proc_0
      - pi_d_a4_a9_proc_1 - pi_d_a4_a9_proc_0 + pi_d_a9_a4_proc_1
      + pi_d_a9_a4_proc_0 - pi_d_a5_a9_proc_1 - pi_d_a5_a9_proc_0
      + pi_d_a9_a5_proc_1 + pi_d_a9_a5_proc_0 - pi_d_a6_a9_proc_0
      + pi_d_a9_a6_proc_0 - pi_d_a7_a9_proc_0 + pi_d_a9_a7_proc_0
      - pi_d_a8_a9_proc_1 - pi_d_a8_a9_proc_0 + pi_d_a9_a8_proc_1
      + pi_d_a9_a8_proc_0 >= 0
 c28: 449 pi_p_a9_a3 + 449 pi_d_a9_a0_proc_0 + 449 pi_d_a9_a1_proc_0
      + 449 pi_d_a9_a2_proc_0 + 449 pi_d_a9_a3_proc_0 + 449 pi_d_a9_a4_proc_0
      + 449 pi_d_a9_a5_proc_0 + 449 pi_d_a9_a6_proc_0 + 449 pi_d_a9_a7_proc_0
      + 449 pi_d_a9_a8_proc_0 + pi_y1_a9 + pi_y2_a9_proc_0 >= 0
 c29: 1220 pi_p_a9_a3 + 1220 pi_d_a9_a0_proc_1 + 1220 pi_d_a9_a1_proc_1
      + 1220 pi_d_a9_a2_proc_1 + 1220 pi_d_a9_a3_proc_1 + 1220 pi_d_a9_a4_proc_1
      + 1220 pi_d_a9_a5_proc_1 + 1220 pi_d_a9_a8_proc_1 + pi_y1_a9
      + pi_y2_a9_proc_1 >= 0

Bounds
       pi_y1_a0 Free
       pi_y1_a1 Free
       pi_y1_a2 Free
       pi_y1_a3 Free
       pi_y1_a4 Free
       pi_y1_a5 Free
       pi_y1_a6 Free
       pi_y1_a7 Free
       pi_y1_a8 Free
       pi_y1_a9 Free
End
