benchmark/results/graph__10-1000-0.10-02_12/graph__10-1000-0.10-02_12_QuintonOs_Benders_sub.txt
solution for: Quinton Bounded Benders_dual_sub
objective: 0.000154727
status: OPTIMAL_SOLUTION(2)
pi_p_a1_a0=0.000
pi_p_a0_a2=0.000
pi_p_a6_a5=0.000
pi_p_a2_a8=0.000
pi_p_a4_a1=0.000
pi_p_a5_a4=0.000
pi_p_a8_a6=0.000
pi_y1_a0=-0.158
pi_y1_a1=-0.132
pi_y1_a2=-0.166
pi_y1_a4=-0.185
pi_y1_a5=-0.080
pi_y1_a6=-0.122
pi_y1_a8=-0.157
pi_y2_a8_proc_0=0.040
